1470161
2,52,40,17,55,74,68,5,48,82,60,57,81,15,16,11,25,93,77,65,0,36,47,86,75,14,66,26,45,33,70,27,10,22,97,53,64,51,85,44,31,20,19,8,32,79,98,67,71,54,43,90,7,84,88,96,41,34,46,56,69,73,37,87,49,35,62,12,29,95,76,9,30,92,61,59,94,24,50,78,28,39,18,58,89,23,42,6,3,80,38,91,83,21,72,13,1,63,4